%%% static parameters %%%
timespan = 1;
Fact = [2];
Distr1 = [15];
Distr2 = [20];
Clients_N = [100];
Demand_W = [15];
Lt0 = [4];
Lt1 = [4];
SS_ = [0.85];
DS_D = [15];
K = [200];
MA = [500];
%%% dynamic parameters %%%
lost_ratio_sales_ret_th = 0.17023181580608812;
lost_ratio_sales_ret_w = 80;
lost_ratio_sales_dis_th = 0.08386015641449629;
lost_ratio_sales_dis_w = 52;
lost_ratio_sales_fac_th = 0.049419508914008925;
lost_ratio_sales_fac_w = 23;
stock_customer_MA_mean_relative_th = 0.686169128188111;
stock_customer_MA_mean_relative_w = 7;
stock_distributor_MA_mean_relative_th = 0.2151317091254643;
stock_distributor_MA_mean_relative_w = 93;
stock_retailer_MA_mean_relative_th = 0.25249605789312224;
stock_retailer_MA_mean_relative_w = 30;
stock_factory_MA_mean_relative_th = 0.26571793145731604;
stock_factory_MA_mean_relative_w = 51;
